\ Model birth-death-regulation-capture-efficiency
\ LP format - for model browsing. Use MPS format to capture full model detail.
Minimize
  k_reg
Subject To
 R0: k_deg_2 = 1
 B_lb_0,_0: p[0,0] + 0.2 p[0,1] + 0.04 p[0,2] + 0.008 p[0,3]
   + 0.0016 p[0,4] + 0.2 p[1,0] + 0.04 p[1,1] + 0.008 p[1,2]
   + 0.0016 p[1,3] + 0.00032 p[1,4] + 0.04 p[2,0] + 0.008 p[2,1]
   + 0.0016 p[2,2] + 0.00032 p[2,3] + 6.4e-05 p[2,4] + 0.008 p[3,0]
   + 0.0016 p[3,1] + 0.00032 p[3,2] + 6.4e-05 p[3,3] + 1.28e-05 p[3,4]
   + 0.0016 p[4,0] + 0.00032 p[4,1] + 6.4e-05 p[4,2] + 1.28e-05 p[4,3]
   + 2.56e-06 p[4,4] >= 0.4053375
 B_ub_0,_0: p[0,0] + 0.2 p[0,1] + 0.04 p[0,2] + 0.008 p[0,3]
   + 0.0016 p[0,4] + 0.2 p[1,0] + 0.04 p[1,1] + 0.008 p[1,2]
   + 0.0016 p[1,3] + 0.00032 p[1,4] + 0.04 p[2,0] + 0.008 p[2,1]
   + 0.0016 p[2,2] + 0.00032 p[2,3] + 6.4e-05 p[2,4] + 0.008 p[3,0]
   + 0.0016 p[3,1] + 0.00032 p[3,2] + 6.4e-05 p[3,3] + 1.28e-05 p[3,4]
   + 0.0016 p[4,0] + 0.00032 p[4,1] + 6.4e-05 p[4,2] + 1.28e-05 p[4,3]
   + 2.56e-06 p[4,4] <= 0.446
 B_lb_0,_1: 0.8 p[0,1] + 0.32 p[0,2] + 0.096 p[0,3] + 0.0256 p[0,4]
   + 0.16 p[1,1] + 0.064 p[1,2] + 0.0192 p[1,3] + 0.00512 p[1,4]
   + 0.032 p[2,1] + 0.0128 p[2,2] + 0.00384 p[2,3] + 0.001024 p[2,4]
   + 0.0064 p[3,1] + 0.00256 p[3,2] + 0.000768 p[3,3] + 0.0002048 p[3,4]
   + 0.00128 p[4,1] + 0.000512 p[4,2] + 0.0001536 p[4,3] + 4.096e-05 p[4,4]
   >= 0.1611375
 B_ub_0,_1: 0.8 p[0,1] + 0.32 p[0,2] + 0.096 p[0,3] + 0.0256 p[0,4]
   + 0.16 p[1,1] + 0.064 p[1,2] + 0.0192 p[1,3] + 0.00512 p[1,4]
   + 0.032 p[2,1] + 0.0128 p[2,2] + 0.00384 p[2,3] + 0.001024 p[2,4]
   + 0.0064 p[3,1] + 0.00256 p[3,2] + 0.000768 p[3,3] + 0.0002048 p[3,4]
   + 0.00128 p[4,1] + 0.000512 p[4,2] + 0.0001536 p[4,3] + 4.096e-05 p[4,4]
   <= 0.196
 B_lb_0,_2: 0.64 p[0,2] + 0.384 p[0,3] + 0.1536 p[0,4] + 0.128 p[1,2]
   + 0.0768 p[1,3] + 0.03072 p[1,4] + 0.0256 p[2,2] + 0.01536 p[2,3]
   + 0.006144 p[2,4] + 0.00512 p[3,2] + 0.003072 p[3,3] + 0.0012288 p[3,4]
   + 0.001024 p[4,2] + 0.0006144 p[4,3] + 0.00024576 p[4,4] >= 0.0349375
 B_ub_0,_2: 0.64 p[0,2] + 0.384 p[0,3] + 0.1536 p[0,4] + 0.128 p[1,2]
   + 0.0768 p[1,3] + 0.03072 p[1,4] + 0.0256 p[2,2] + 0.01536 p[2,3]
   + 0.006144 p[2,4] + 0.00512 p[3,2] + 0.003072 p[3,3] + 0.0012288 p[3,4]
   + 0.001024 p[4,2] + 0.0006144 p[4,3] + 0.00024576 p[4,4] <= 0.061
 B_lb_0,_3: 0.512 p[0,3] + 0.4096 p[0,4] + 0.1024 p[1,3] + 0.08192 p[1,4]
   + 0.02048 p[2,3] + 0.016384 p[2,4] + 0.004096 p[3,3] + 0.0032768 p[3,4]
   + 0.0008192 p[4,3] + 0.00065536 p[4,4] >= -0.0052625
 B_ub_0,_3: 0.512 p[0,3] + 0.4096 p[0,4] + 0.1024 p[1,3] + 0.08192 p[1,4]
   + 0.02048 p[2,3] + 0.016384 p[2,4] + 0.004096 p[3,3] + 0.0032768 p[3,4]
   + 0.0008192 p[4,3] + 0.00065536 p[4,4] <= 0.014
 B_lb_1,_0: 0.8 p[1,0] + 0.16 p[1,1] + 0.032 p[1,2] + 0.0064 p[1,3]
   + 0.00128 p[1,4] + 0.32 p[2,0] + 0.064 p[2,1] + 0.0128 p[2,2]
   + 0.00256 p[2,3] + 0.000512 p[2,4] + 0.096 p[3,0] + 0.0192 p[3,1]
   + 0.00384 p[3,2] + 0.000768 p[3,3] + 0.0001536 p[3,4] + 0.0256 p[4,0]
   + 0.00512 p[4,1] + 0.001024 p[4,2] + 0.0002048 p[4,3] + 4.096e-05 p[4,4]
   >= 0.1733375
 B_ub_1,_0: 0.8 p[1,0] + 0.16 p[1,1] + 0.032 p[1,2] + 0.0064 p[1,3]
   + 0.00128 p[1,4] + 0.32 p[2,0] + 0.064 p[2,1] + 0.0128 p[2,2]
   + 0.00256 p[2,3] + 0.000512 p[2,4] + 0.096 p[3,0] + 0.0192 p[3,1]
   + 0.00384 p[3,2] + 0.000768 p[3,3] + 0.0001536 p[3,4] + 0.0256 p[4,0]
   + 0.00512 p[4,1] + 0.001024 p[4,2] + 0.0002048 p[4,3] + 4.096e-05 p[4,4]
   <= 0.209
 B_lb_1,_1: 0.64 p[1,1] + 0.256 p[1,2] + 0.0768 p[1,3] + 0.02048 p[1,4]
   + 0.256 p[2,1] + 0.1024 p[2,2] + 0.03072 p[2,3] + 0.008192 p[2,4]
   + 0.0768 p[3,1] + 0.03072 p[3,2] + 0.009216 p[3,3] + 0.0024576 p[3,4]
   + 0.02048 p[4,1] + 0.008192 p[4,2] + 0.0024576 p[4,3]
   + 0.00065536 p[4,4] >= 0.0187375
 B_ub_1,_1: 0.64 p[1,1] + 0.256 p[1,2] + 0.0768 p[1,3] + 0.02048 p[1,4]
   + 0.256 p[2,1] + 0.1024 p[2,2] + 0.03072 p[2,3] + 0.008192 p[2,4]
   + 0.0768 p[3,1] + 0.03072 p[3,2] + 0.009216 p[3,3] + 0.0024576 p[3,4]
   + 0.02048 p[4,1] + 0.008192 p[4,2] + 0.0024576 p[4,3]
   + 0.00065536 p[4,4] <= 0.0426
 B_lb_1,_2: 0.512 p[1,2] + 0.3072 p[1,3] + 0.12288 p[1,4] + 0.2048 p[2,2]
   + 0.12288 p[2,3] + 0.049152 p[2,4] + 0.06144 p[3,2] + 0.036864 p[3,3]
   + 0.0147456 p[3,4] + 0.016384 p[4,2] + 0.0098304 p[4,3]
   + 0.00393216 p[4,4] >= -0.0100625
 B_ub_1,_2: 0.512 p[1,2] + 0.3072 p[1,3] + 0.12288 p[1,4] + 0.2048 p[2,2]
   + 0.12288 p[2,3] + 0.049152 p[2,4] + 0.06144 p[3,2] + 0.036864 p[3,3]
   + 0.0147456 p[3,4] + 0.016384 p[4,2] + 0.0098304 p[4,3]
   + 0.00393216 p[4,4] <= 0.0076
 B_lb_1,_3: 0.4096 p[1,3] + 0.32768 p[1,4] + 0.16384 p[2,3]
   + 0.131072 p[2,4] + 0.049152 p[3,3] + 0.0393216 p[3,4]
   + 0.0131072 p[4,3] + 0.0104857600000011 p[4,4] >= -0.0134625
 B_ub_1,_3: 0.4096 p[1,3] + 0.32768 p[1,4] + 0.16384 p[2,3]
   + 0.131072 p[2,4] + 0.049152 p[3,3] + 0.0393216 p[3,4]
   + 0.0131072 p[4,3] + 0.0104857600000011 p[4,4] <= 1
 B_lb_2,_0: 0.64 p[2,0] + 0.128 p[2,1] + 0.0256 p[2,2] + 0.00512 p[2,3]
   + 0.001024 p[2,4] + 0.384 p[3,0] + 0.0768 p[3,1] + 0.01536 p[3,2]
   + 0.003072 p[3,3] + 0.0006144 p[3,4] + 0.1536 p[4,0] + 0.03072 p[4,1]
   + 0.006144 p[4,2] + 0.0012288 p[4,3] + 0.00024576 p[4,4] >= 0.0327375
 B_ub_2,_0: 0.64 p[2,0] + 0.128 p[2,1] + 0.0256 p[2,2] + 0.00512 p[2,3]
   + 0.001024 p[2,4] + 0.384 p[3,0] + 0.0768 p[3,1] + 0.01536 p[3,2]
   + 0.003072 p[3,3] + 0.0006144 p[3,4] + 0.1536 p[4,0] + 0.03072 p[4,1]
   + 0.006144 p[4,2] + 0.0012288 p[4,3] + 0.00024576 p[4,4] <= 0.0584
 B_lb_2,_1: 0.512 p[2,1] + 0.2048 p[2,2] + 0.06144 p[2,3] + 0.016384 p[2,4]
   + 0.3072 p[3,1] + 0.12288 p[3,2] + 0.036864 p[3,3] + 0.0098304 p[3,4]
   + 0.12288 p[4,1] + 0.049152 p[4,2] + 0.0147456 p[4,3]
   + 0.00393216 p[4,4] >= -0.0092625
 B_ub_2,_1: 0.512 p[2,1] + 0.2048 p[2,2] + 0.06144 p[2,3] + 0.016384 p[2,4]
   + 0.3072 p[3,1] + 0.12288 p[3,2] + 0.036864 p[3,3] + 0.0098304 p[3,4]
   + 0.12288 p[4,1] + 0.049152 p[4,2] + 0.0147456 p[4,3]
   + 0.00393216 p[4,4] <= 0.0084
 B_lb_2,_2: 0.4096 p[2,2] + 0.24576 p[2,3] + 0.098304 p[2,4]
   + 0.24576 p[3,2] + 0.147456 p[3,3] + 0.0589824 p[3,4] + 0.098304 p[4,2]
   + 0.0589824 p[4,3] + 0.0235929600000026 p[4,4] >= -0.0134625
 B_ub_2,_2: 0.4096 p[2,2] + 0.24576 p[2,3] + 0.098304 p[2,4]
   + 0.24576 p[3,2] + 0.147456 p[3,3] + 0.0589824 p[3,4] + 0.098304 p[4,2]
   + 0.0589824 p[4,3] + 0.0235929600000026 p[4,4] <= 1
 B_lb_2,_3: 0.32768 p[2,3] + 0.262144 p[2,4] + 0.196608 p[3,3]
   + 0.1572864000000015 p[3,4] + 0.0786432 p[4,3]
   + 0.0629145600000068 p[4,4] >= -0.0134625
 B_ub_2,_3: 0.32768 p[2,3] + 0.262144 p[2,4] + 0.196608 p[3,3]
   + 0.1572864000000015 p[3,4] + 0.0786432 p[4,3]
   + 0.0629145600000068 p[4,4] <= 1
 B_lb_3,_0: 0.512 p[3,0] + 0.1024 p[3,1] + 0.02048 p[3,2] + 0.004096 p[3,3]
   + 0.0008192 p[3,4] + 0.4096 p[4,0] + 0.08192 p[4,1] + 0.016384 p[4,2]
   + 0.0032768 p[4,3] + 0.00065536 p[4,4] >= -0.0034625
 B_ub_3,_0: 0.512 p[3,0] + 0.1024 p[3,1] + 0.02048 p[3,2] + 0.004096 p[3,3]
   + 0.0008192 p[3,4] + 0.4096 p[4,0] + 0.08192 p[4,1] + 0.016384 p[4,2]
   + 0.0032768 p[4,3] + 0.00065536 p[4,4] <= 0.0162
 B_lb_3,_1: 0.4096 p[3,1] + 0.16384 p[3,2] + 0.049152 p[3,3]
   + 0.0131072 p[3,4] + 0.32768 p[4,1] + 0.131072 p[4,2] + 0.0393216 p[4,3]
   + 0.0104857600000011 p[4,4] >= -0.0134625
 B_ub_3,_1: 0.4096 p[3,1] + 0.16384 p[3,2] + 0.049152 p[3,3]
   + 0.0131072 p[3,4] + 0.32768 p[4,1] + 0.131072 p[4,2] + 0.0393216 p[4,3]
   + 0.0104857600000011 p[4,4] <= 1
 B_lb_3,_2: 0.32768 p[3,2] + 0.196608 p[3,3] + 0.0786432 p[3,4]
   + 0.262144 p[4,2] + 0.1572864000000015 p[4,3]
   + 0.0629145600000068 p[4,4] >= -0.0134625
 B_ub_3,_2: 0.32768 p[3,2] + 0.196608 p[3,3] + 0.0786432 p[3,4]
   + 0.262144 p[4,2] + 0.1572864000000015 p[4,3]
   + 0.0629145600000068 p[4,4] <= 1
 B_lb_3,_3: 0.262144 p[3,3] + 0.209715200000002 p[3,4]
   + 0.209715200000002 p[4,3] + 0.1677721600000182 p[4,4] >= -0.0134625
 B_ub_3,_3: 0.262144 p[3,3] + 0.209715200000002 p[3,4]
   + 0.209715200000002 p[4,3] + 0.1677721600000182 p[4,4] <= 1
 B_marginal_lb_0: p1[0] + 0.2 p1[1] + 0.04 p1[2] + 0.008 p1[3]
   + 0.0016 p1[4] >= 0.5661
 B_marginal_ub_0: p1[0] + 0.2 p1[1] + 0.04 p1[2] + 0.008 p1[3]
   + 0.0016 p1[4] <= 0.698
 B_marginal_lb_1: 0.8 p1[1] + 0.32 p1[2] + 0.096 p1[3] + 0.0256 p1[4]
   >= 0.1223
 B_marginal_ub_1: 0.8 p1[1] + 0.32 p1[2] + 0.096 p1[3] + 0.0256 p1[4]
   <= 0.2524
 B_marginal_lb_2: 0.64 p1[2] + 0.384 p1[3] + 0.1536 p1[4] >= -0.0541
 B_marginal_ub_2: 0.64 p1[2] + 0.384 p1[3] + 0.1536 p1[4] <= 0.065405
 B_marginal_lb_3: 0.512 p1[3] + 0.4096 p1[4] >= -0.0963
 B_marginal_ub_3: 0.512 p1[3] + 0.4096 p1[4] <= 0.0164
 B_marginal_lb_0: p2[0] + 0.2 p2[1] + 0.04 p2[2] + 0.008 p2[3]
   + 0.0016 p2[4] >= 0.5817
 B_marginal_ub_0: p2[0] + 0.2 p2[1] + 0.04 p2[2] + 0.008 p2[3]
   + 0.0016 p2[4] <= 0.7102
 B_marginal_lb_1: 0.8 p2[1] + 0.32 p2[2] + 0.096 p2[3] + 0.0256 p2[4]
   >= 0.1145
 B_marginal_ub_1: 0.8 p2[1] + 0.32 p2[2] + 0.096 p2[3] + 0.0256 p2[4]
   <= 0.2406
 B_marginal_lb_2: 0.64 p2[2] + 0.384 p2[3] + 0.1536 p2[4] >= -0.0489
 B_marginal_ub_2: 0.64 p2[2] + 0.384 p2[3] + 0.1536 p2[4] <= 0.067005
 B_marginal_lb_3: 0.512 p2[3] + 0.4096 p2[4] >= -0.0943
 B_marginal_ub_3: 0.512 p2[3] + 0.4096 p2[4] <= 0.0142
 frechet_lb_0,_0: - p[0,0] + p1[0] + p2[0] <= 1
 frechet_ub_x1_0: p[0,0] - p1[0] <= 0
 frechet_ub_x2_0: p[0,0] - p2[0] <= 0
 frechet_lb_0,_1: - p[0,1] + p1[0] + p2[1] <= 1
 frechet_ub_x1_0: p[0,1] - p1[0] <= 0
 frechet_ub_x2_1: p[0,1] - p2[1] <= 0
 frechet_lb_0,_2: - p[0,2] + p1[0] + p2[2] <= 1
 frechet_ub_x1_0: p[0,2] - p1[0] <= 0
 frechet_ub_x2_2: p[0,2] - p2[2] <= 0
 frechet_lb_0,_3: - p[0,3] + p1[0] + p2[3] <= 1
 frechet_ub_x1_0: p[0,3] - p1[0] <= 0
 frechet_ub_x2_3: p[0,3] - p2[3] <= 0
 frechet_lb_0,_4: - p[0,4] + p1[0] + p2[4] <= 1
 frechet_ub_x1_0: p[0,4] - p1[0] <= 0
 frechet_ub_x2_4: p[0,4] - p2[4] <= 0
 frechet_lb_1,_0: - p[1,0] + p1[1] + p2[0] <= 1
 frechet_ub_x1_1: p[1,0] - p1[1] <= 0
 frechet_ub_x2_0: p[1,0] - p2[0] <= 0
 frechet_lb_1,_1: - p[1,1] + p1[1] + p2[1] <= 1
 frechet_ub_x1_1: p[1,1] - p1[1] <= 0
 frechet_ub_x2_1: p[1,1] - p2[1] <= 0
 frechet_lb_1,_2: - p[1,2] + p1[1] + p2[2] <= 1
 frechet_ub_x1_1: p[1,2] - p1[1] <= 0
 frechet_ub_x2_2: p[1,2] - p2[2] <= 0
 frechet_lb_1,_3: - p[1,3] + p1[1] + p2[3] <= 1
 frechet_ub_x1_1: p[1,3] - p1[1] <= 0
 frechet_ub_x2_3: p[1,3] - p2[3] <= 0
 frechet_lb_1,_4: - p[1,4] + p1[1] + p2[4] <= 1
 frechet_ub_x1_1: p[1,4] - p1[1] <= 0
 frechet_ub_x2_4: p[1,4] - p2[4] <= 0
 frechet_lb_2,_0: - p[2,0] + p1[2] + p2[0] <= 1
 frechet_ub_x1_2: p[2,0] - p1[2] <= 0
 frechet_ub_x2_0: p[2,0] - p2[0] <= 0
 frechet_lb_2,_1: - p[2,1] + p1[2] + p2[1] <= 1
 frechet_ub_x1_2: p[2,1] - p1[2] <= 0
 frechet_ub_x2_1: p[2,1] - p2[1] <= 0
 frechet_lb_2,_2: - p[2,2] + p1[2] + p2[2] <= 1
 frechet_ub_x1_2: p[2,2] - p1[2] <= 0
 frechet_ub_x2_2: p[2,2] - p2[2] <= 0
 frechet_lb_2,_3: - p[2,3] + p1[2] + p2[3] <= 1
 frechet_ub_x1_2: p[2,3] - p1[2] <= 0
 frechet_ub_x2_3: p[2,3] - p2[3] <= 0
 frechet_lb_2,_4: - p[2,4] + p1[2] + p2[4] <= 1
 frechet_ub_x1_2: p[2,4] - p1[2] <= 0
 frechet_ub_x2_4: p[2,4] - p2[4] <= 0
 frechet_lb_3,_0: - p[3,0] + p1[3] + p2[0] <= 1
 frechet_ub_x1_3: p[3,0] - p1[3] <= 0
 frechet_ub_x2_0: p[3,0] - p2[0] <= 0
 frechet_lb_3,_1: - p[3,1] + p1[3] + p2[1] <= 1
 frechet_ub_x1_3: p[3,1] - p1[3] <= 0
 frechet_ub_x2_1: p[3,1] - p2[1] <= 0
 frechet_lb_3,_2: - p[3,2] + p1[3] + p2[2] <= 1
 frechet_ub_x1_3: p[3,2] - p1[3] <= 0
 frechet_ub_x2_2: p[3,2] - p2[2] <= 0
 frechet_lb_3,_3: - p[3,3] + p1[3] + p2[3] <= 1
 frechet_ub_x1_3: p[3,3] - p1[3] <= 0
 frechet_ub_x2_3: p[3,3] - p2[3] <= 0
 frechet_lb_3,_4: - p[3,4] + p1[3] + p2[4] <= 1
 frechet_ub_x1_3: p[3,4] - p1[3] <= 0
 frechet_ub_x2_4: p[3,4] - p2[4] <= 0
 frechet_lb_4,_0: - p[4,0] + p1[4] + p2[0] <= 1
 frechet_ub_x1_4: p[4,0] - p1[4] <= 0
 frechet_ub_x2_0: p[4,0] - p2[0] <= 0
 frechet_lb_4,_1: - p[4,1] + p1[4] + p2[1] <= 1
 frechet_ub_x1_4: p[4,1] - p1[4] <= 0
 frechet_ub_x2_1: p[4,1] - p2[1] <= 0
 frechet_lb_4,_2: - p[4,2] + p1[4] + p2[2] <= 1
 frechet_ub_x1_4: p[4,2] - p1[4] <= 0
 frechet_ub_x2_2: p[4,2] - p2[2] <= 0
 frechet_lb_4,_3: - p[4,3] + p1[4] + p2[3] <= 1
 frechet_ub_x1_4: p[4,3] - p1[4] <= 0
 frechet_ub_x2_3: p[4,3] - p2[3] <= 0
 frechet_lb_4,_4: - p[4,4] + p1[4] + p2[4] <= 1
 frechet_ub_x1_4: p[4,4] - p1[4] <= 0
 frechet_ub_x2_4: p[4,4] - p2[4] <= 0
 Distribution: p[0,0] + p[0,1] + p[0,2] + p[0,3] + p[0,4] + p[1,0] + p[1,1]
   + p[1,2] + p[1,3] + p[1,4] + p[2,0] + p[2,1] + p[2,2] + p[2,3] + p[2,4]
   + p[3,0] + p[3,1] + p[3,2] + p[3,3] + p[3,4] + p[4,0] + p[4,1] + p[4,2]
   + p[4,3] + p[4,4] <= 1
 Distribution_x1: p1[0] + p1[1] + p1[2] + p1[3] + p1[4] <= 1
 Distribution_x2: p2[0] + p2[1] + p2[2] + p2[3] + p2[4] <= 1
 Equation_0,_0: [ - p[0,0] * k_tx_1 - p[0,0] * k_tx_2 + p[0,1] * k_deg_2
   + p[1,0] * k_deg_1 + p[1,1] * k_reg ] = 0
 Equation_0,_1: [ p[0,0] * k_tx_2 - p[0,1] * k_tx_1 - p[0,1] * k_tx_2
   - p[0,1] * k_deg_2 + 2 p[0,2] * k_deg_2 + p[1,1] * k_deg_1
   + 2 p[1,2] * k_reg ] = 0
 Equation_0,_2: [ p[0,1] * k_tx_2 - p[0,2] * k_tx_1 - p[0,2] * k_tx_2
   - 2 p[0,2] * k_deg_2 + 3 p[0,3] * k_deg_2 + p[1,2] * k_deg_1
   + 3 p[1,3] * k_reg ] = 0
 Equation_0,_3: [ p[0,2] * k_tx_2 - p[0,3] * k_tx_1 - p[0,3] * k_tx_2
   - 3 p[0,3] * k_deg_2 + 4 p[0,4] * k_deg_2 + p[1,3] * k_deg_1
   + 4 p[1,4] * k_reg ] = 0
 Equation_1,_0: [ p[0,0] * k_tx_1 - p[1,0] * k_tx_1 - p[1,0] * k_tx_2
   - p[1,0] * k_deg_1 + p[1,1] * k_deg_2 + 2 p[2,0] * k_deg_1
   + 2 p[2,1] * k_reg ] = 0
 Equation_1,_1: [ p[0,1] * k_tx_1 + p[1,0] * k_tx_2 - p[1,1] * k_tx_1
   - p[1,1] * k_tx_2 - p[1,1] * k_deg_1 - p[1,1] * k_deg_2 - p[1,1] * k_reg
   + 2 p[1,2] * k_deg_2 + 2 p[2,1] * k_deg_1 + 4 p[2,2] * k_reg ] = 0
 Equation_1,_2: [ p[0,2] * k_tx_1 + p[1,1] * k_tx_2 - p[1,2] * k_tx_1
   - p[1,2] * k_tx_2 - p[1,2] * k_deg_1 - 2 p[1,2] * k_deg_2
   - 2 p[1,2] * k_reg + 3 p[1,3] * k_deg_2 + 2 p[2,2] * k_deg_1
   + 6 p[2,3] * k_reg ] = 0
 Equation_1,_3: [ p[0,3] * k_tx_1 + p[1,2] * k_tx_2 - p[1,3] * k_tx_1
   - p[1,3] * k_tx_2 - p[1,3] * k_deg_1 - 3 p[1,3] * k_deg_2
   - 3 p[1,3] * k_reg + 4 p[1,4] * k_deg_2 + 2 p[2,3] * k_deg_1
   + 8 p[2,4] * k_reg ] = 0
 Equation_2,_0: [ p[1,0] * k_tx_1 - p[2,0] * k_tx_1 - p[2,0] * k_tx_2
   - 2 p[2,0] * k_deg_1 + p[2,1] * k_deg_2 + 3 p[3,0] * k_deg_1
   + 3 p[3,1] * k_reg ] = 0
 Equation_2,_1: [ p[1,1] * k_tx_1 + p[2,0] * k_tx_2 - p[2,1] * k_tx_1
   - p[2,1] * k_tx_2 - 2 p[2,1] * k_deg_1 - p[2,1] * k_deg_2
   - 2 p[2,1] * k_reg + 2 p[2,2] * k_deg_2 + 3 p[3,1] * k_deg_1
   + 6 p[3,2] * k_reg ] = 0
 Equation_2,_2: [ p[1,2] * k_tx_1 + p[2,1] * k_tx_2 - p[2,2] * k_tx_1
   - p[2,2] * k_tx_2 - 2 p[2,2] * k_deg_1 - 2 p[2,2] * k_deg_2
   - 4 p[2,2] * k_reg + 3 p[2,3] * k_deg_2 + 3 p[3,2] * k_deg_1
   + 9 p[3,3] * k_reg ] = 0
 Equation_2,_3: [ p[1,3] * k_tx_1 + p[2,2] * k_tx_2 - p[2,3] * k_tx_1
   - p[2,3] * k_tx_2 - 2 p[2,3] * k_deg_1 - 3 p[2,3] * k_deg_2
   - 6 p[2,3] * k_reg + 4 p[2,4] * k_deg_2 + 3 p[3,3] * k_deg_1
   + 12 p[3,4] * k_reg ] = 0
 Equation_3,_0: [ p[2,0] * k_tx_1 - p[3,0] * k_tx_1 - p[3,0] * k_tx_2
   - 3 p[3,0] * k_deg_1 + p[3,1] * k_deg_2 + 4 p[4,0] * k_deg_1
   + 4 p[4,1] * k_reg ] = 0
 Equation_3,_1: [ p[2,1] * k_tx_1 + p[3,0] * k_tx_2 - p[3,1] * k_tx_1
   - p[3,1] * k_tx_2 - 3 p[3,1] * k_deg_1 - p[3,1] * k_deg_2
   - 3 p[3,1] * k_reg + 2 p[3,2] * k_deg_2 + 4 p[4,1] * k_deg_1
   + 8 p[4,2] * k_reg ] = 0
 Equation_3,_2: [ p[2,2] * k_tx_1 + p[3,1] * k_tx_2 - p[3,2] * k_tx_1
   - p[3,2] * k_tx_2 - 3 p[3,2] * k_deg_1 - 2 p[3,2] * k_deg_2
   - 6 p[3,2] * k_reg + 3 p[3,3] * k_deg_2 + 4 p[4,2] * k_deg_1
   + 12 p[4,3] * k_reg ] = 0
 Equation_3,_3: [ p[2,3] * k_tx_1 + p[3,2] * k_tx_2 - p[3,3] * k_tx_1
   - p[3,3] * k_tx_2 - 3 p[3,3] * k_deg_1 - 3 p[3,3] * k_deg_2
   - 9 p[3,3] * k_reg + 4 p[3,4] * k_deg_2 + 4 p[4,3] * k_deg_1
   + 16 p[4,4] * k_reg ] = 0
Bounds
 p[0,0] <= 1
 p[0,1] <= 1
 p[0,2] <= 1
 p[0,3] <= 1
 p[0,4] <= 1
 p[1,0] <= 1
 p[1,1] <= 1
 p[1,2] <= 1
 p[1,3] <= 1
 p[1,4] <= 1
 p[2,0] <= 1
 p[2,1] <= 1
 p[2,2] <= 1
 p[2,3] <= 1
 p[2,4] <= 1
 p[3,0] <= 1
 p[3,1] <= 1
 p[3,2] <= 1
 p[3,3] <= 1
 p[3,4] <= 1
 p[4,0] <= 1
 p[4,1] <= 1
 p[4,2] <= 1
 p[4,3] <= 1
 p[4,4] <= 1
 p1[0] <= 1
 p1[1] <= 1
 p1[2] <= 1
 p1[3] <= 1
 p1[4] <= 1
 p2[0] <= 1
 p2[1] <= 1
 p2[2] <= 1
 p2[3] <= 1
 p2[4] <= 1
 k_tx_1 <= 10
 k_tx_2 <= 10
 k_deg_1 <= 10
 k_deg_2 <= 10
 k_reg <= 10
End
